experiment/data/lkh-res/Vrp-Set-A-n64/Vrp-Set-A-n64-lkh/0.lkh1.vrp
NAME : 0
COMMENT : CVRP Instance
TYPE : CVRP
DIMENSION : 64
EDGE_WEIGHT_TYPE : EUC_2D
CAPACITY : 100
NODE_COORD_SECTION
1	9700	3300
2	5700	8100
3	100	3300
4	5500	5700
5	2900	3700
6	2100	3900
7	9300	3700
8	500	9100
9	2500	1100
10	4700	3700
11	8700	2500
12	6700	6500
13	7100	8900
14	6700	1500
15	4500	7900
16	7100	5700
17	2900	100
18	5900	7900
19	9300	8300
20	4700	4100
21	5100	4100
22	2300	9300
23	8700	9500
24	3900	4500
25	4500	700
26	8500	5100
27	3500	9300
28	4700	7900
29	5900	9100
30	8300	5100
31	4900	6500
32	2100	5500
33	5100	2100
34	6900	4300
35	3700	4100
36	3700	9500
37	500	7100
38	3700	4700
39	8300	7300
40	1700	7100
41	500	7100
42	8100	1700
43	5900	3300
44	6300	8700
45	2100	7700
46	7100	5100
47	2100	1700
48	900	700
49	6500	4300
50	2500	6300
51	1300	5700
52	4700	4300
53	7700	900
54	5700	5500
55	2100	3300
56	2700	5900
57	8300	900
58	6300	6900
59	900	3500
60	2500	5500
61	3300	300
62	5300	1100
63	5100	4900
64	900	2300
DEMAND_SECTION
1	0
2	10
3	15
4	23
5	23
6	24
7	17
8	1
9	4
10	2
11	5
12	18
13	9
14	8
15	23
16	13
17	4
18	18
19	16
20	26
21	16
22	4
23	23
24	8
25	26
26	16
27	5
28	2
29	21
30	23
31	8
32	5
33	8
34	26
35	12
36	8
37	3
38	8
39	19
40	16
41	2
42	3
43	17
44	7
45	5
46	8
47	4
48	12
49	19
50	19
51	26
52	24
53	5
54	8
55	22
56	9
57	18
58	19
59	15
60	5
61	11
62	12
63	54
64	8
DEPOT_SECTION
1
-1
EOF
