experiment/data/lkh-res/Vrp-Set-A-n64/Vrp-Set-A-n64-lkh/0.lkh1.tour
NAME : 0.140773.tour
COMMENT : Length = 140773
COMMENT : Found by LKH-3 [Keld Helsgaun] Tue Apr  9 00:49:38 2024
TYPE : TOUR
DIMENSION : 72
TOUR_SECTION
1
43
33
25
62
14
53
57
11
65
39
19
23
13
58
16
71
18
2
28
15
31
4
54
46
72
7
30
26
66
49
52
35
20
21
68
10
55
59
3
64
48
47
9
17
61
42
67
5
6
51
32
60
38
24
70
12
63
34
69
44
29
36
27
22
8
37
41
40
45
50
56
-1
EOF
